p cnf 430 1488
-191 -52 0
-191 -179 0
-191 -50 0
-191 99 0
-191 73 0
191 52 179 50 -99 -73 0
-192 38 0
-192 85 0
-192 -64 0
-192 107 0
-192 74 0
192 -38 -85 64 -107 -74 0
-193 90 0
-193 -66 0
-193 -163 0
-193 88 0
-193 -183 0
193 -90 66 163 -88 183 0
-194 -10 0
-194 -175 0
-194 -77 0
-194 -96 0
-194 -55 0
194 10 175 77 96 55 0
-195 -92 0
-195 174 0
-195 15 0
-195 -8 0
-195 -1 0
195 92 -174 -15 8 1 0
191 192 193 194 195 0
-196 -134 0
-196 -161 0
-196 -80 0
-196 8 0
-196 -36 0
196 134 161 80 -8 36 0
-197 3 0
-197 145 0
-197 -185 0
-197 110 0
-197 64 0
197 -3 -145 185 -110 -64 0
-198 76 0
-198 -83 0
-198 -86 0
-198 46 0
-198 -22 0
198 -76 83 86 -46 22 0
-199 -120 0
-199 -118 0
-199 73 0
-199 -132 0
-199 -121 0
199 120 118 -73 132 121 0
-200 24 0
-200 105 0
-200 116 0
-200 -32 0
-200 -150 0
200 -24 -105 -116 32 150 0
196 197 198 199 200 0
-201 -2 0
-201 -57 0
-201 102 0
-201 141 0
-201 -125 0
201 2 57 -102 -141 125 0
-202 79 0
-202 143 0
-202 144 0
-202 23 0
-202 -139 0
202 -79 -143 -144 -23 139 0
-203 186 0
-203 98 0
-203 -153 0
-203 -91 0
-203 -111 0
203 -186 -98 153 91 111 0
-204 136 0
-204 -181 0
-204 176 0
-204 -154 0
-204 149 0
204 -136 181 -176 154 -149 0
-205 35 0
-205 139 0
-205 168 0
-205 -33 0
-205 -129 0
205 -35 -139 -168 33 129 0
201 202 203 204 205 0
-206 119 0
-206 -124 0
-206 94 0
-206 -17 0
-206 22 0
206 -119 124 -94 17 -22 0
-207 -152 0
-207 -55 0
-207 26 0
-207 -29 0
-207 -125 0
207 152 55 -26 29 125 0
-208 1 0
-208 49 0
-208 -60 0
-208 145 0
-208 -43 0
208 -1 -49 60 -145 43 0
-209 96 0
-209 -138 0
-209 -52 0
-209 71 0
-209 114 0
209 -96 138 52 -71 -114 0
-210 -132 0
-210 78 0
-210 130 0
-210 154 0
-210 146 0
210 132 -78 -130 -154 -146 0
206 207 208 209 210 0
-211 83 0
-211 156 0
-211 11 0
-211 24 0
-211 -152 0
211 -83 -156 -11 -24 152 0
-212 186 0
-212 -76 0
-212 42 0
-212 -133 0
-212 4 0
212 -186 76 -42 133 -4 0
-213 111 0
-213 -107 0
-213 -168 0
-213 -130 0
-213 147 0
213 -111 107 168 130 -147 0
-214 17 0
-214 -31 0
-214 124 0
-214 58 0
-214 -52 0
214 -17 31 -124 -58 52 0
-215 63 0
-215 154 0
-215 115 0
-215 132 0
-215 -91 0
215 -63 -154 -115 -132 91 0
211 212 213 214 215 0
-216 33 0
-216 139 0
-216 17 0
-216 -31 0
-216 130 0
216 -33 -139 -17 31 -130 0
-217 34 0
-217 127 0
-217 2 0
-217 115 0
-217 -109 0
217 -34 -127 -2 -115 109 0
-218 -159 0
-218 -133 0
-218 131 0
-218 136 0
-218 61 0
218 159 133 -131 -136 -61 0
-219 -142 0
-219 -160 0
-219 -143 0
-219 134 0
-219 1 0
219 142 160 143 -134 -1 0
-220 -137 0
-220 86 0
-220 -25 0
-220 -92 0
-220 -103 0
220 137 -86 25 92 103 0
216 217 218 219 220 0
-221 50 0
-221 154 0
-221 116 0
-221 -99 0
-221 23 0
221 -50 -154 -116 99 -23 0
-222 6 0
-222 -97 0
-222 -172 0
-222 -8 0
-222 -129 0
222 -6 97 172 8 129 0
-223 -42 0
-223 -97 0
-223 105 0
-223 154 0
-223 -136 0
223 42 97 -105 -154 136 0
-224 102 0
-224 158 0
-224 -78 0
-224 183 0
-224 -130 0
224 -102 -158 78 -183 130 0
-225 -44 0
-225 -162 0
-225 101 0
-225 -95 0
-225 -68 0
225 44 162 -101 95 68 0
221 222 223 224 225 0
-226 106 0
-226 182 0
-226 -97 0
-226 137 0
-226 -34 0
226 -106 -182 97 -137 34 0
-227 83 0
-227 28 0
-227 -115 0
-227 169 0
-227 109 0
227 -83 -28 115 -169 -109 0
-228 25 0
-228 169 0
-228 47 0
-228 86 0
-228 -139 0
228 -25 -169 -47 -86 139 0
-229 62 0
-229 -9 0
-229 -58 0
-229 123 0
-229 -181 0
229 -62 9 58 -123 181 0
-230 -163 0
-230 186 0
-230 95 0
-230 32 0
-230 39 0
230 163 -186 -95 -32 -39 0
226 227 228 229 230 0
-231 127 0
-231 178 0
-231 116 0
-231 -110 0
-231 83 0
231 -127 -178 -116 110 -83 0
-232 177 0
-232 -86 0
-232 98 0
-232 -155 0
-232 -1 0
232 -177 86 -98 155 1 0
-233 -156 0
-233 -28 0
-233 118 0
-233 32 0
-233 -133 0
233 156 28 -118 -32 133 0
-234 -13 0
-234 -165 0
-234 -59 0
-234 -116 0
-234 -50 0
234 13 165 59 116 50 0
-235 -90 0
-235 159 0
-235 -109 0
-235 -88 0
-235 130 0
235 90 -159 109 88 -130 0
231 232 233 234 235 0
-236 -70 0
-236 138 0
-236 -100 0
-236 16 0
-236 86 0
236 70 -138 100 -16 -86 0
-237 37 0
-237 -184 0
-237 188 0
-237 154 0
-237 -91 0
237 -37 184 -188 -154 91 0
-238 -165 0
-238 -34 0
-238 39 0
-238 -152 0
-238 -26 0
238 165 34 -39 152 26 0
-239 172 0
-239 39 0
-239 76 0
-239 -115 0
-239 -65 0
239 -172 -39 -76 115 65 0
-240 176 0
-240 161 0
-240 22 0
-240 164 0
-240 77 0
240 -176 -161 -22 -164 -77 0
236 237 238 239 240 0
-241 -130 0
-241 75 0
-241 -44 0
-241 182 0
-241 8 0
241 130 -75 44 -182 -8 0
-242 -122 0
-242 -107 0
-242 171 0
-242 130 0
-242 -119 0
242 122 107 -171 -130 119 0
-243 -87 0
-243 6 0
-243 -154 0
-243 -13 0
-243 -170 0
243 87 -6 154 13 170 0
-244 38 0
-244 -148 0
-244 5 0
-244 145 0
-244 21 0
244 -38 148 -5 -145 -21 0
-245 -139 0
-245 113 0
-245 -53 0
-245 -59 0
-245 21 0
245 139 -113 53 59 -21 0
241 242 243 244 245 0
-246 116 0
-246 51 0
-246 -6 0
-246 15 0
-246 111 0
246 -116 -51 6 -15 -111 0
-247 126 0
-247 -74 0
-247 -116 0
-247 12 0
-247 -108 0
247 -126 74 116 -12 108 0
-248 33 0
-248 -143 0
-248 -58 0
-248 14 0
-248 -190 0
248 -33 143 58 -14 190 0
-249 43 0
-249 -46 0
-249 105 0
-249 -5 0
-249 59 0
249 -43 46 -105 5 -59 0
-250 179 0
-250 186 0
-250 -175 0
-250 10 0
-250 127 0
250 -179 -186 175 -10 -127 0
246 247 248 249 250 0
-251 169 0
-251 124 0
-251 -8 0
-251 -54 0
-251 -187 0
251 -169 -124 8 54 187 0
-252 -49 0
-252 -7 0
-252 -40 0
-252 -8 0
-252 -162 0
252 49 7 40 8 162 0
-253 41 0
-253 -135 0
-253 -83 0
-253 -182 0
-253 130 0
253 -41 135 83 182 -130 0
-254 100 0
-254 -12 0
-254 1 0
-254 -13 0
-254 147 0
254 -100 12 -1 13 -147 0
-255 145 0
-255 158 0
-255 164 0
-255 -125 0
-255 67 0
255 -145 -158 -164 125 -67 0
251 252 253 254 255 0
-256 173 0
-256 -5 0
-256 15 0
-256 -16 0
-256 -129 0
256 -173 5 -15 16 129 0
-257 163 0
-257 -91 0
-257 -135 0
-257 114 0
-257 -82 0
257 -163 91 135 -114 82 0
-258 -27 0
-258 -26 0
-258 69 0
-258 124 0
-258 -125 0
258 27 26 -69 -124 125 0
-259 141 0
-259 95 0
-259 -134 0
-259 -123 0
-259 157 0
259 -141 -95 134 123 -157 0
-260 155 0
-260 65 0
-260 -69 0
-260 138 0
-260 88 0
260 -155 -65 69 -138 -88 0
256 257 258 259 260 0
-261 190 0
-261 131 0
-261 154 0
-261 -148 0
-261 175 0
261 -190 -131 -154 148 -175 0
-262 -76 0
-262 35 0
-262 33 0
-262 -132 0
-262 18 0
262 76 -35 -33 132 -18 0
-263 77 0
-263 92 0
-263 -4 0
-263 147 0
-263 63 0
263 -77 -92 4 -147 -63 0
-264 -41 0
-264 -18 0
-264 132 0
-264 54 0
-264 -7 0
264 41 18 -132 -54 7 0
-265 -163 0
-265 -66 0
-265 179 0
-265 -15 0
-265 -114 0
265 163 66 -179 15 114 0
261 262 263 264 265 0
-266 -8 0
-266 -49 0
-266 -94 0
-266 142 0
-266 158 0
266 8 49 94 -142 -158 0
-267 5 0
-267 104 0
-267 -29 0
-267 57 0
-267 -175 0
267 -5 -104 29 -57 175 0
-268 -111 0
-268 -118 0
-268 -85 0
-268 -99 0
-268 145 0
268 111 118 85 99 -145 0
-269 -41 0
-269 138 0
-269 -133 0
-269 40 0
-269 139 0
269 41 -138 133 -40 -139 0
-270 -152 0
-270 19 0
-270 118 0
-270 135 0
-270 -132 0
270 152 -19 -118 -135 132 0
266 267 268 269 270 0
-271 -178 0
-271 -84 0
-271 -142 0
-271 -121 0
-271 -172 0
271 178 84 142 121 172 0
-272 30 0
-272 187 0
-272 57 0
-272 28 0
-272 -104 0
272 -30 -187 -57 -28 104 0
-273 82 0
-273 175 0
-273 104 0
-273 139 0
-273 -1 0
273 -82 -175 -104 -139 1 0
-274 97 0
-274 -70 0
-274 -168 0
-274 -91 0
-274 190 0
274 -97 70 168 91 -190 0
-275 -127 0
-275 -102 0
-275 185 0
-275 9 0
-275 24 0
275 127 102 -185 -9 -24 0
271 272 273 274 275 0
-276 16 0
-276 70 0
-276 -10 0
-276 136 0
-276 187 0
276 -16 -70 10 -136 -187 0
-277 -181 0
-277 167 0
-277 29 0
-277 -138 0
-277 -121 0
277 181 -167 -29 138 121 0
-278 -44 0
-278 181 0
-278 -86 0
-278 -186 0
-278 161 0
278 44 -181 86 186 -161 0
-279 130 0
-279 2 0
-279 -70 0
-279 80 0
-279 -12 0
279 -130 -2 70 -80 12 0
-280 -119 0
-280 13 0
-280 170 0
-280 78 0
-280 -175 0
280 119 -13 -170 -78 175 0
276 277 278 279 280 0
-281 94 0
-281 -2 0
-281 -69 0
-281 58 0
-281 146 0
281 -94 2 69 -58 -146 0
-282 106 0
-282 -157 0
-282 164 0
-282 -89 0
-282 -3 0
282 -106 157 -164 89 3 0
-283 -12 0
-283 118 0
-283 173 0
-283 117 0
-283 54 0
283 12 -118 -173 -117 -54 0
-284 -108 0
-284 -25 0
-284 -141 0
-284 88 0
-284 48 0
284 108 25 141 -88 -48 0
-285 -70 0
-285 128 0
-285 16 0
-285 37 0
-285 5 0
285 70 -128 -16 -37 -5 0
281 282 283 284 285 0
-286 13 0
-286 -11 0
-286 -142 0
-286 -61 0
-286 48 0
286 -13 11 142 61 -48 0
-287 88 0
-287 -31 0
-287 153 0
-287 167 0
-287 59 0
287 -88 31 -153 -167 -59 0
-288 -143 0
-288 -41 0
-288 -54 0
-288 88 0
-288 97 0
288 143 41 54 -88 -97 0
-289 150 0
-289 -91 0
-289 -95 0
-289 -31 0
-289 -149 0
289 -150 91 95 31 149 0
-290 -9 0
-290 -97 0
-290 -120 0
-290 -72 0
-290 -18 0
290 9 97 120 72 18 0
286 287 288 289 290 0
-291 -145 0
-291 42 0
-291 -172 0
-291 -138 0
-291 -24 0
291 145 -42 172 138 24 0
-292 124 0
-292 -57 0
-292 -104 0
-292 168 0
-292 110 0
292 -124 57 104 -168 -110 0
-293 81 0
-293 -80 0
-293 -99 0
-293 -171 0
-293 104 0
293 -81 80 99 171 -104 0
-294 70 0
-294 55 0
-294 41 0
-294 -31 0
-294 -134 0
294 -70 -55 -41 31 134 0
-295 -55 0
-295 65 0
-295 162 0
-295 80 0
-295 163 0
295 55 -65 -162 -80 -163 0
291 292 293 294 295 0
-296 14 0
-296 -135 0
-296 -180 0
-296 -54 0
-296 185 0
296 -14 135 180 54 -185 0
-297 180 0
-297 -6 0
-297 -121 0
-297 -8 0
-297 -46 0
297 -180 6 121 8 46 0
-298 1 0
-298 124 0
-298 -184 0
-298 95 0
-298 113 0
298 -1 -124 184 -95 -113 0
-299 162 0
-299 -117 0
-299 -178 0
-299 -183 0
-299 -112 0
299 -162 117 178 183 112 0
-300 -22 0
-300 148 0
-300 -161 0
-300 -25 0
-300 -74 0
300 22 -148 161 25 74 0
296 297 298 299 300 0
-301 -157 0
-301 -5 0
-301 14 0
-301 107 0
-301 73 0
301 157 5 -14 -107 -73 0
-302 28 0
-302 -167 0
-302 -145 0
-302 -119 0
-302 -92 0
302 -28 167 145 119 92 0
-303 -187 0
-303 93 0
-303 146 0
-303 -9 0
-303 -19 0
303 187 -93 -146 9 19 0
-304 71 0
-304 95 0
-304 -29 0
-304 -105 0
-304 -97 0
304 -71 -95 29 105 97 0
-305 -17 0
-305 -107 0
-305 85 0
-305 -116 0
-305 71 0
305 17 107 -85 116 -71 0
301 302 303 304 305 0
-306 128 0
-306 38 0
-306 158 0
-306 -46 0
-306 76 0
306 -128 -38 -158 46 -76 0
-307 -80 0
-307 158 0
-307 -132 0
-307 -139 0
-307 -39 0
307 80 -158 132 139 39 0
-308 15 0
-308 -104 0
-308 114 0
-308 156 0
-308 113 0
308 -15 104 -114 -156 -113 0
-309 -127 0
-309 -109 0
-309 -166 0
-309 -129 0
-309 95 0
309 127 109 166 129 -95 0
-310 -62 0
-310 36 0
-310 141 0
-310 -166 0
-310 15 0
310 62 -36 -141 166 -15 0
306 307 308 309 310 0
-311 101 0
-311 146 0
-311 -111 0
-311 -130 0
-311 -150 0
311 -101 -146 111 130 150 0
-312 -80 0
-312 -130 0
-312 -41 0
-312 -2 0
-312 118 0
312 80 130 41 2 -118 0
-313 -32 0
-313 161 0
-313 -62 0
-313 -106 0
-313 48 0
313 32 -161 62 106 -48 0
-314 34 0
-314 41 0
-314 -174 0
-314 -2 0
-314 162 0
314 -34 -41 174 2 -162 0
-315 -71 0
-315 99 0
-315 -29 0
-315 -76 0
-315 -22 0
315 71 -99 29 76 22 0
311 312 313 314 315 0
-316 -59 0
-316 -14 0
-316 150 0
-316 11 0
-316 -77 0
316 59 14 -150 -11 77 0
-317 7 0
-317 43 0
-317 113 0
-317 -161 0
-317 156 0
317 -7 -43 -113 161 -156 0
-318 -21 0
-318 68 0
-318 54 0
-318 -84 0
-318 167 0
318 21 -68 -54 84 -167 0
-319 -78 0
-319 -70 0
-319 95 0
-319 -61 0
-319 -131 0
319 78 70 -95 61 131 0
-320 155 0
-320 3 0
-320 -73 0
-320 -112 0
-320 -69 0
320 -155 -3 73 112 69 0
316 317 318 319 320 0
-321 -186 0
-321 -116 0
-321 137 0
-321 -26 0
-321 57 0
321 186 116 -137 26 -57 0
-322 -74 0
-322 -81 0
-322 51 0
-322 -28 0
-322 -119 0
322 74 81 -51 28 119 0
-323 -168 0
-323 7 0
-323 -17 0
-323 27 0
-323 142 0
323 168 -7 17 -27 -142 0
-324 96 0
-324 170 0
-324 56 0
-324 -38 0
-324 -18 0
324 -96 -170 -56 38 18 0
-325 3 0
-325 188 0
-325 -80 0
-325 -6 0
-325 60 0
325 -3 -188 80 6 -60 0
321 322 323 324 325 0
-326 -76 0
-326 21 0
-326 83 0
-326 61 0
-326 -65 0
326 76 -21 -83 -61 65 0
-327 -34 0
-327 -106 0
-327 81 0
-327 50 0
-327 -6 0
327 34 106 -81 -50 6 0
-328 76 0
-328 151 0
-328 -20 0
-328 -47 0
-328 -141 0
328 -76 -151 20 47 141 0
-329 -73 0
-329 107 0
-329 108 0
-329 -86 0
-329 154 0
329 73 -107 -108 86 -154 0
-330 80 0
-330 -26 0
-330 143 0
-330 -19 0
-330 -97 0
330 -80 26 -143 19 97 0
326 327 328 329 330 0
-331 100 0
-331 157 0
-331 91 0
-331 -85 0
-331 -130 0
331 -100 -157 -91 85 130 0
-332 -30 0
-332 189 0
-332 -17 0
-332 50 0
-332 -112 0
332 30 -189 17 -50 112 0
-333 -88 0
-333 46 0
-333 10 0
-333 -52 0
-333 -152 0
333 88 -46 -10 52 152 0
-334 129 0
-334 -42 0
-334 35 0
-334 17 0
-334 -125 0
334 -129 42 -35 -17 125 0
-335 -176 0
-335 170 0
-335 91 0
-335 -55 0
-335 -139 0
335 176 -170 -91 55 139 0
331 332 333 334 335 0
-336 106 0
-336 168 0
-336 126 0
-336 -15 0
-336 -98 0
336 -106 -168 -126 15 98 0
-337 -51 0
-337 -67 0
-337 -54 0
-337 23 0
-337 22 0
337 51 67 54 -23 -22 0
-338 -52 0
-338 169 0
-338 -147 0
-338 96 0
-338 -186 0
338 52 -169 147 -96 186 0
-339 -135 0
-339 -176 0
-339 -79 0
-339 127 0
-339 47 0
339 135 176 79 -127 -47 0
-340 33 0
-340 -3 0
-340 -189 0
-340 -130 0
-340 179 0
340 -33 3 189 130 -179 0
336 337 338 339 340 0
-341 27 0
-341 -175 0
-341 -65 0
-341 76 0
-341 -102 0
341 -27 175 65 -76 102 0
-342 -141 0
-342 -85 0
-342 -151 0
-342 -79 0
-342 -146 0
342 141 85 151 79 146 0
-343 -95 0
-343 -166 0
-343 99 0
-343 8 0
-343 179 0
343 95 166 -99 -8 -179 0
-344 152 0
-344 -150 0
-344 -183 0
-344 11 0
-344 -119 0
344 -152 150 183 -11 119 0
-345 172 0
-345 -27 0
-345 -26 0
-345 -129 0
-345 -123 0
345 -172 27 26 129 123 0
341 342 343 344 345 0
-346 -7 0
-346 -176 0
-346 -63 0
-346 -173 0
-346 100 0
346 7 176 63 173 -100 0
-347 152 0
-347 -78 0
-347 -178 0
-347 126 0
-347 -156 0
347 -152 78 178 -126 156 0
-348 -183 0
-348 146 0
-348 147 0
-348 180 0
-348 -152 0
348 183 -146 -147 -180 152 0
-349 71 0
-349 131 0
-349 156 0
-349 -7 0
-349 -65 0
349 -71 -131 -156 7 65 0
-350 -56 0
-350 61 0
-350 -25 0
-350 144 0
-350 170 0
350 56 -61 25 -144 -170 0
346 347 348 349 350 0
-351 138 0
-351 152 0
-351 46 0
-351 104 0
-351 89 0
351 -138 -152 -46 -104 -89 0
-352 16 0
-352 -35 0
-352 -11 0
-352 175 0
-352 -72 0
352 -16 35 11 -175 72 0
-353 93 0
-353 -68 0
-353 86 0
-353 111 0
-353 -188 0
353 -93 68 -86 -111 188 0
-354 182 0
-354 -13 0
-354 15 0
-354 138 0
-354 -27 0
354 -182 13 -15 -138 27 0
-355 96 0
-355 -15 0
-355 -72 0
-355 -84 0
-355 111 0
355 -96 15 72 84 -111 0
351 352 353 354 355 0
-356 -36 0
-356 76 0
-356 18 0
-356 86 0
-356 75 0
356 36 -76 -18 -86 -75 0
-357 -19 0
-357 -9 0
-357 167 0
-357 26 0
-357 -183 0
357 19 9 -167 -26 183 0
-358 188 0
-358 -159 0
-358 186 0
-358 -41 0
-358 36 0
358 -188 159 -186 41 -36 0
-359 137 0
-359 -34 0
-359 -71 0
-359 108 0
-359 -64 0
359 -137 34 71 -108 64 0
-360 -118 0
-360 10 0
-360 -156 0
-360 178 0
-360 168 0
360 118 -10 156 -178 -168 0
356 357 358 359 360 0
-361 -138 0
-361 -129 0
-361 -148 0
-361 -184 0
-361 57 0
361 138 129 148 184 -57 0
-362 -156 0
-362 -75 0
-362 15 0
-362 123 0
-362 -88 0
362 156 75 -15 -123 88 0
-363 105 0
-363 -23 0
-363 184 0
-363 34 0
-363 61 0
363 -105 23 -184 -34 -61 0
-364 37 0
-364 -88 0
-364 -6 0
-364 1 0
-364 177 0
364 -37 88 6 -1 -177 0
-365 57 0
-365 15 0
-365 5 0
-365 -90 0
-365 -132 0
365 -57 -15 -5 90 132 0
361 362 363 364 365 0
-366 126 0
-366 49 0
-366 -106 0
-366 54 0
-366 -88 0
366 -126 -49 106 -54 88 0
-367 27 0
-367 -178 0
-367 61 0
-367 -23 0
-367 -114 0
367 -27 178 -61 23 114 0
-368 59 0
-368 -66 0
-368 -172 0
-368 -32 0
-368 -28 0
368 -59 66 172 32 28 0
-369 151 0
-369 -154 0
-369 75 0
-369 14 0
-369 -95 0
369 -151 154 -75 -14 95 0
-370 -75 0
-370 -143 0
-370 -80 0
-370 13 0
-370 42 0
370 75 143 80 -13 -42 0
366 367 368 369 370 0
-371 -183 0
-371 -152 0
-371 -116 0
-371 33 0
-371 13 0
371 183 152 116 -33 -13 0
-372 80 0
-372 -114 0
-372 1 0
-372 -62 0
-372 106 0
372 -80 114 -1 62 -106 0
-373 -171 0
-373 5 0
-373 -112 0
-373 36 0
-373 -44 0
373 171 -5 112 -36 44 0
-374 166 0
-374 66 0
-374 93 0
-374 37 0
-374 120 0
374 -166 -66 -93 -37 -120 0
-375 -83 0
-375 -28 0
-375 -36 0
-375 -107 0
-375 177 0
375 83 28 36 107 -177 0
371 372 373 374 375 0
-376 16 0
-376 -145 0
-376 45 0
-376 75 0
-376 172 0
376 -16 145 -45 -75 -172 0
-377 63 0
-377 52 0
-377 -42 0
-377 68 0
-377 28 0
377 -63 -52 42 -68 -28 0
-378 150 0
-378 177 0
-378 -40 0
-378 -109 0
-378 -122 0
378 -150 -177 40 109 122 0
-379 3 0
-379 171 0
-379 54 0
-379 177 0
-379 71 0
379 -3 -171 -54 -177 -71 0
-380 124 0
-380 102 0
-380 164 0
-380 28 0
-380 -171 0
380 -124 -102 -164 -28 171 0
376 377 378 379 380 0
-381 8 0
-381 52 0
-381 -16 0
-381 -146 0
-381 -153 0
381 -8 -52 16 146 153 0
-382 90 0
-382 -100 0
-382 185 0
-382 -131 0
-382 132 0
382 -90 100 -185 131 -132 0
-383 101 0
-383 -92 0
-383 133 0
-383 -142 0
-383 155 0
383 -101 92 -133 142 -155 0
-384 69 0
-384 -151 0
-384 -139 0
-384 33 0
-384 98 0
384 -69 151 139 -33 -98 0
-385 159 0
-385 -47 0
-385 69 0
-385 6 0
-385 5 0
385 -159 47 -69 -6 -5 0
381 382 383 384 385 0
-386 51 0
-386 9 0
-386 115 0
-386 -44 0
-386 166 0
386 -51 -9 -115 44 -166 0
-387 188 0
-387 167 0
-387 -65 0
-387 170 0
-387 82 0
387 -188 -167 65 -170 -82 0
-388 -172 0
-388 25 0
-388 -52 0
-388 1 0
-388 -5 0
388 172 -25 52 -1 5 0
-389 -32 0
-389 -180 0
-389 147 0
-389 156 0
-389 -25 0
389 32 180 -147 -156 25 0
-390 157 0
-390 -106 0
-390 -45 0
-390 13 0
-390 -74 0
390 -157 106 45 -13 74 0
386 387 388 389 390 0
-391 -67 0
-391 -7 0
-391 -166 0
-391 -176 0
-391 10 0
391 67 7 166 176 -10 0
-392 -50 0
-392 150 0
-392 -137 0
-392 149 0
-392 -170 0
392 50 -150 137 -149 170 0
-393 -13 0
-393 163 0
-393 87 0
-393 154 0
-393 51 0
393 13 -163 -87 -154 -51 0
-394 -91 0
-394 13 0
-394 -57 0
-394 14 0
-394 25 0
394 91 -13 57 -14 -25 0
-395 103 0
-395 142 0
-395 22 0
-395 165 0
-395 -74 0
395 -103 -142 -22 -165 74 0
391 392 393 394 395 0
-396 110 0
-396 -89 0
-396 -175 0
-396 23 0
-396 8 0
396 -110 89 175 -23 -8 0
-397 -151 0
-397 38 0
-397 176 0
-397 -92 0
-397 162 0
397 151 -38 -176 92 -162 0
-398 81 0
-398 9 0
-398 99 0
-398 -26 0
-398 -41 0
398 -81 -9 -99 26 41 0
-399 125 0
-399 83 0
-399 -102 0
-399 45 0
-399 59 0
399 -125 -83 102 -45 -59 0
-400 90 0
-400 -162 0
-400 -184 0
-400 69 0
-400 -141 0
400 -90 162 184 -69 141 0
396 397 398 399 400 0
-401 -96 0
-401 -42 0
-401 44 0
-401 -14 0
-401 79 0
401 96 42 -44 14 -79 0
-402 132 0
-402 -145 0
-402 71 0
-402 -4 0
-402 127 0
402 -132 145 -71 4 -127 0
-403 -111 0
-403 -129 0
-403 -82 0
-403 72 0
-403 80 0
403 111 129 82 -72 -80 0
-404 2 0
-404 45 0
-404 -106 0
-404 66 0
-404 32 0
404 -2 -45 106 -66 -32 0
-405 -45 0
-405 68 0
-405 29 0
-405 44 0
-405 106 0
405 45 -68 -29 -44 -106 0
401 402 403 404 405 0
-406 99 0
-406 -183 0
-406 95 0
-406 -52 0
-406 -28 0
406 -99 183 -95 52 28 0
-407 162 0
-407 32 0
-407 165 0
-407 70 0
-407 -187 0
407 -162 -32 -165 -70 187 0
-408 47 0
-408 177 0
-408 73 0
-408 23 0
-408 37 0
408 -47 -177 -73 -23 -37 0
-409 -64 0
-409 31 0
-409 -127 0
-409 -172 0
-409 -101 0
409 64 -31 127 172 101 0
-410 157 0
-410 -82 0
-410 86 0
-410 -106 0
-410 137 0
410 -157 82 -86 106 -137 0
406 407 408 409 410 0
-411 -187 0
-411 -164 0
-411 -69 0
-411 28 0
-411 86 0
411 187 164 69 -28 -86 0
-412 -185 0
-412 64 0
-412 -30 0
-412 -7 0
-412 -121 0
412 185 -64 30 7 121 0
-413 -102 0
-413 -33 0
-413 -16 0
-413 -190 0
-413 173 0
413 102 33 16 190 -173 0
-414 -107 0
-414 123 0
-414 -158 0
-414 72 0
-414 119 0
414 107 -123 158 -72 -119 0
-415 170 0
-415 -73 0
-415 109 0
-415 -144 0
-415 -15 0
415 -170 73 -109 144 15 0
411 412 413 414 415 0
-416 -3 0
-416 -84 0
-416 -8 0
-416 -171 0
-416 -128 0
416 3 84 8 171 128 0
-417 -173 0
-417 98 0
-417 -20 0
-417 -57 0
-417 185 0
417 173 -98 20 57 -185 0
-418 77 0
-418 39 0
-418 111 0
-418 -90 0
-418 48 0
418 -77 -39 -111 90 -48 0
-419 134 0
-419 106 0
-419 -166 0
-419 -179 0
-419 -175 0
419 -134 -106 166 179 175 0
-420 -67 0
-420 177 0
-420 -116 0
-420 -42 0
-420 39 0
420 67 -177 116 42 -39 0
416 417 418 419 420 0
-421 -4 0
-421 -138 0
-421 68 0
-421 -143 0
-421 -87 0
421 4 138 -68 143 87 0
-422 168 0
-422 -166 0
-422 124 0
-422 51 0
-422 -88 0
422 -168 166 -124 -51 88 0
-423 155 0
-423 103 0
-423 181 0
-423 -52 0
-423 121 0
423 -155 -103 -181 52 -121 0
-424 33 0
-424 154 0
-424 109 0
-424 111 0
-424 -151 0
424 -33 -154 -109 -111 151 0
-425 19 0
-425 -88 0
-425 -173 0
-425 66 0
-425 184 0
425 -19 88 173 -66 -184 0
421 422 423 424 425 0
-426 23 0
-426 -93 0
-426 119 0
-426 -87 0
-426 36 0
426 -23 93 -119 87 -36 0
-427 182 0
-427 -124 0
-427 59 0
-427 -87 0
-427 -115 0
427 -182 124 -59 87 115 0
-428 -158 0
-428 -184 0
-428 162 0
-428 143 0
-428 -108 0
428 158 184 -162 -143 108 0
-429 -128 0
-429 123 0
-429 -18 0
-429 -29 0
-429 175 0
429 128 -123 18 29 -175 0
-430 -80 0
-430 99 0
-430 7 0
-430 -117 0
-430 49 0
430 80 -99 -7 117 -49 0
426 427 428 429 430 0
